p cnf 100 26
-16 -13 -1 0
-16 14 -1 0
-17 16 -8 -1 0
-18 17 -1 0
-18 3 -1 0
-18 19 -1 0
-18 20 -1 0
-6 18 -1 -26 0
-1 26 0
-54 -51 -40 0
-54 52 -40 0
-55 54 -47 -40 0
-56 55 -40 0
-56 57 -40 0
-56 58 -40 0
-45 56 -40 -61 0
-40 61 0
-22 -87 0
-23 -87 0
24 -87 0
25 -87 0
6 -88 0
8 -88 0
45 -88 0
47 -88 0
51 -52 -20 -3 -88 22 23 -24 -25 -57 -58 -14 13 -19 0
